unsat
(:max-memory         18.05
 :memory             17.95
 :nlsat-conflicts    4
 :nlsat-propagations 14
 :nlsat-stages       4
 :num-allocs         29855
 :rlimit-count       1819
 :time               0.00
 :total-time         0.01)
